mixintcount/benchmarks/random_v2l/8_8_1000.in
32 10
#	x1	x2	x3	x4	x5	x6	x7	x8;		0 = Real; 1 = Integer
	1	1	1	1	1	1	1	1
1	-7	-5	-1	-1	5	-6	10	-6	660
1	-3	-4	4	-6	-1	-4	-6	10	802
1	-8	10	-8	10	6	6	-3	-2	262
1	-8	9	7	-3	10	-9	7	-2	258
1	9	-5	8	-9	3	-6	3	5	504
1	9	9	-2	-9	9	-3	-9	9	-560
1	8	-5	-2	4	-4	-6	0	3	419
1	-1	-3	0	-6	-4	3	-10	-5	-973
1	-8	8	9	3	5	5	-10	4	89
1	-5	6	0	-7	1	3	1	-8	-208
1	3	2	2	4	9	7	-9	-8	-303
1	5	-10	-3	6	-8	-7	2	3	-638
1	-3	1	-1	9	6	-6	-4	9	806
1	9	-3	5	8	10	-6	-3	2	-306
1	-7	3	-7	-6	-3	-7	1	-9	343
1	2	3	7	-3	10	-2	7	6	327
1	1	0	0	0	0	0	0	0	1000
1	-1	0	0	0	0	0	0	0	1000
1	0	1	0	0	0	0	0	0	1000
1	0	-1	0	0	0	0	0	0	1000
1	0	0	1	0	0	0	0	0	1000
1	0	0	-1	0	0	0	0	0	1000
1	0	0	0	1	0	0	0	0	1000
1	0	0	0	-1	0	0	0	0	1000
1	0	0	0	0	1	0	0	0	1000
1	0	0	0	0	-1	0	0	0	1000
1	0	0	0	0	0	1	0	0	1000
1	0	0	0	0	0	-1	0	0	1000
1	0	0	0	0	0	0	1	0	1000
1	0	0	0	0	0	0	-1	0	1000
1	0	0	0	0	0	0	0	1	1000
1	0	0	0	0	0	0	0	-1	1000
